c Generated map
c Size: 15 * 15, weights in range: 1 to 10, walls: True, with ratio 0.1
c dim 4 of 4
c
p sp 225 343
c graph contains 225 nodes and 343 arcs
c
a 1 16 7
a 16 1 7
a 1 2 7
a 2 1 7
a 2 17 1
a 17 2 1
a 2 3 7
a 3 2 7
a 3 18 4
a 18 3 4
a 3 4 6
a 4 3 6
a 4 19 8
a 19 4 8
a 4 5 7
a 5 4 7
a 5 20 10
a 20 5 10
a 5 6 10
a 6 5 10
a 6 21 5
a 21 6 5
a 6 7 10
a 7 6 10
a 7 22 1
a 22 7 1
a 7 8 10
a 8 7 10
a 8 23 9
a 23 8 9
a 8 9 2
a 9 8 2
a 9 24 8
a 24 9 8
a 9 10 9
a 10 9 9
a 10 25 9
a 25 10 9
a 10 11 3
a 11 10 3
a 11 26 4
a 26 11 4
a 11 12 10
a 12 11 10
a 12 27 1
a 27 12 1
a 12 13 2
a 13 12 2
a 13 28 3
a 28 13 3
a 13 14 7
a 14 13 7
a 14 29 4
a 29 14 4
a 14 15 10
a 15 14 10
a 15 30 3
a 30 15 3
a 16 31 4
a 31 16 4
a 16 17 10
a 17 16 10
a 17 18 10
a 18 17 10
a 18 19 10
a 19 18 10
a 19 34 5
a 34 19 5
a 19 20 4
a 20 19 4
a 20 35 2
a 35 20 2
a 20 21 7
a 21 20 7
a 21 36 6
a 36 21 6
a 21 22 6
a 22 21 6
a 22 37 4
a 37 22 4
a 22 23 4
a 23 22 4
a 23 38 2
a 38 23 2
a 23 24 1
a 24 23 1
a 24 39 6
a 39 24 6
a 24 25 9
a 25 24 9
a 25 40 2
a 40 25 2
a 25 26 3
a 26 25 3
a 26 41 4
a 41 26 4
a 26 27 8
a 27 26 8
a 27 42 4
a 42 27 4
a 27 28 1
a 28 27 1
a 28 43 8
a 43 28 8
a 28 29 5
a 29 28 5
a 29 30 6
a 30 29 6
a 30 45 5
a 45 30 5
a 31 46 6
a 46 31 6
a 34 49 9
a 49 34 9
a 34 35 10
a 35 34 10
a 35 50 7
a 50 35 7
a 35 36 6
a 36 35 6
a 36 51 2
a 51 36 2
a 36 37 5
a 37 36 5
a 37 52 3
a 52 37 3
a 37 38 7
a 38 37 7
a 38 53 4
a 53 38 4
a 38 39 8
a 39 38 8
a 39 54 6
a 54 39 6
a 39 40 7
a 40 39 7
a 40 55 10
a 55 40 10
a 40 41 3
a 41 40 3
a 41 56 8
a 56 41 8
a 41 42 4
a 42 41 4
a 42 57 10
a 57 42 10
a 42 43 6
a 43 42 6
a 43 58 6
a 58 43 6
a 45 60 5
a 60 45 5
a 46 61 1
a 61 46 1
a 46 47 1
a 47 46 1
a 47 62 10
a 62 47 10
a 47 48 1
a 48 47 1
a 48 63 9
a 63 48 9
a 48 49 5
a 49 48 5
a 49 64 5
a 64 49 5
a 49 50 7
a 50 49 7
a 50 65 2
a 65 50 2
a 50 51 2
a 51 50 2
a 51 52 10
a 52 51 10
a 52 67 1
a 67 52 1
a 52 53 6
a 53 52 6
a 53 68 2
a 68 53 2
a 53 54 4
a 54 53 4
a 54 69 7
a 69 54 7
a 54 55 3
a 55 54 3
a 55 70 2
a 70 55 2
a 55 56 5
a 56 55 5
a 56 71 8
a 71 56 8
a 56 57 9
a 57 56 9
a 57 72 8
a 72 57 8
a 57 58 7
a 58 57 7
a 58 73 1
a 73 58 1
a 58 59 8
a 59 58 8
a 59 74 4
a 74 59 4
a 59 60 8
a 60 59 8
a 61 62 10
a 62 61 10
a 62 63 4
a 63 62 4
a 63 64 3
a 64 63 3
a 64 79 2
a 79 64 2
a 64 65 4
a 65 64 4
a 65 80 5
a 80 65 5
a 67 82 10
a 82 67 10
a 67 68 10
a 68 67 10
a 68 83 1
a 83 68 1
a 68 69 2
a 69 68 2
a 69 84 8
a 84 69 8
a 69 70 7
a 70 69 7
a 70 85 3
a 85 70 3
a 70 71 10
a 71 70 10
a 71 86 2
a 86 71 2
a 71 72 1
a 72 71 1
a 72 87 5
a 87 72 5
a 72 73 9
a 73 72 9
a 73 88 2
a 88 73 2
a 73 74 7
a 74 73 7
a 74 89 4
a 89 74 4
a 79 94 3
a 94 79 3
a 79 80 7
a 80 79 7
a 80 95 9
a 95 80 9
a 80 81 6
a 81 80 6
a 81 96 4
a 96 81 4
a 81 82 9
a 82 81 9
a 82 97 1
a 97 82 1
a 82 83 5
a 83 82 5
a 83 98 1
a 98 83 1
a 83 84 1
a 84 83 1
a 84 99 3
a 99 84 3
a 84 85 1
a 85 84 1
a 85 100 3
a 100 85 3
a 85 86 10
a 86 85 10
a 86 101 5
a 101 86 5
a 86 87 10
a 87 86 10
a 87 102 5
a 102 87 5
a 87 88 6
a 88 87 6
a 88 103 5
a 103 88 5
a 88 89 7
a 89 88 7
a 89 104 10
a 104 89 10
a 89 90 10
a 90 89 10
a 90 105 9
a 105 90 9
a 91 106 9
a 106 91 9
a 91 92 9
a 92 91 9
a 92 107 8
a 107 92 8
a 92 93 9
a 93 92 9
a 93 108 8
a 108 93 8
a 93 94 9
a 94 93 9
a 94 109 1
a 109 94 1
a 94 95 10
a 95 94 10
a 95 110 10
a 110 95 10
a 95 96 5
a 96 95 5
a 96 111 10
a 111 96 10
a 96 97 7
a 97 96 7
a 97 112 1
a 112 97 1
a 97 98 9
a 98 97 9
a 98 113 4
a 113 98 4
a 98 99 2
a 99 98 2
a 99 114 3
a 114 99 3
a 99 100 4
a 100 99 4
a 100 115 2
a 115 100 2
a 100 101 5
a 101 100 5
a 101 116 5
a 116 101 5
a 101 102 5
a 102 101 5
a 102 117 3
a 117 102 3
a 102 103 6
a 103 102 6
a 103 118 2
a 118 103 2
a 103 104 5
a 104 103 5
a 104 119 6
a 119 104 6
a 104 105 6
a 105 104 6
a 105 120 1
a 120 105 1
a 106 121 1
a 121 106 1
a 106 107 4
a 107 106 4
a 107 122 6
a 122 107 6
a 107 108 3
a 108 107 3
a 108 123 3
a 123 108 3
a 108 109 10
a 109 108 10
a 109 124 7
a 124 109 7
a 109 110 8
a 110 109 8
a 110 125 6
a 125 110 6
a 110 111 3
a 111 110 3
a 111 126 2
a 126 111 2
a 111 112 3
a 112 111 3
a 112 127 1
a 127 112 1
a 112 113 3
a 113 112 3
a 113 128 2
a 128 113 2
a 113 114 4
a 114 113 4
a 114 129 4
a 129 114 4
a 114 115 5
a 115 114 5
a 115 130 2
a 130 115 2
a 115 116 2
a 116 115 2
a 116 131 6
a 131 116 6
a 116 117 6
a 117 116 6
a 117 132 2
a 132 117 2
a 117 118 5
a 118 117 5
a 118 133 5
a 133 118 5
a 118 119 3
a 119 118 3
a 119 134 3
a 134 119 3
a 119 120 10
a 120 119 10
a 120 135 7
a 135 120 7
a 121 136 4
a 136 121 4
a 121 122 5
a 122 121 5
a 122 137 9
a 137 122 9
a 122 123 2
a 123 122 2
a 123 138 2
a 138 123 2
a 123 124 3
a 124 123 3
a 124 139 6
a 139 124 6
a 124 125 9
a 125 124 9
a 125 140 6
a 140 125 6
a 125 126 2
a 126 125 2
a 126 127 2
a 127 126 2
a 127 142 7
a 142 127 7
a 127 128 8
a 128 127 8
a 128 129 8
a 129 128 8
a 129 144 5
a 144 129 5
a 129 130 5
a 130 129 5
a 130 145 9
a 145 130 9
a 130 131 6
a 131 130 6
a 131 146 10
a 146 131 10
a 131 132 5
a 132 131 5
a 132 147 1
a 147 132 1
a 132 133 10
a 133 132 10
a 133 148 10
a 148 133 10
a 133 134 2
a 134 133 2
a 134 149 9
a 149 134 9
a 134 135 8
a 135 134 8
a 136 151 7
a 151 136 7
a 136 137 6
a 137 136 6
a 137 152 5
a 152 137 5
a 137 138 4
a 138 137 4
a 138 153 3
a 153 138 3
a 138 139 6
a 139 138 6
a 139 154 1
a 154 139 1
a 139 140 7
a 140 139 7
a 140 155 6
a 155 140 6
a 142 157 1
a 157 142 1
a 144 145 9
a 145 144 9
a 145 160 9
a 160 145 9
a 145 146 9
a 146 145 9
a 146 161 8
a 161 146 8
a 146 147 2
a 147 146 2
a 147 148 2
a 148 147 2
a 148 163 1
a 163 148 1
a 148 149 10
a 149 148 10
a 149 164 3
a 164 149 3
a 151 166 4
a 166 151 4
a 151 152 5
a 152 151 5
a 152 167 4
a 167 152 4
a 152 153 9
a 153 152 9
a 153 168 1
a 168 153 1
a 153 154 8
a 154 153 8
a 154 155 5
a 155 154 5
a 157 158 6
a 158 157 6
a 158 173 4
a 173 158 4
a 160 175 4
a 175 160 4
a 160 161 2
a 161 160 2
a 161 176 8
a 176 161 8
a 163 178 5
a 178 163 5
a 163 164 5
a 164 163 5
a 164 179 8
a 179 164 8
a 164 165 7
a 165 164 7
a 165 180 5
a 180 165 5
a 166 181 4
a 181 166 4
a 166 167 1
a 167 166 1
a 167 168 5
a 168 167 5
a 168 183 10
a 183 168 10
a 171 186 10
a 186 171 10
a 173 188 6
a 188 173 6
a 173 174 1
a 174 173 1
a 174 189 4
a 189 174 4
a 174 175 9
a 175 174 9
a 175 190 4
a 190 175 4
a 175 176 7
a 176 175 7
a 176 191 7
a 191 176 7
a 176 177 6
a 177 176 6
a 177 192 1
a 192 177 1
a 177 178 2
a 178 177 2
a 178 193 2
a 193 178 2
a 178 179 10
a 179 178 10
a 179 194 4
a 194 179 4
a 179 180 3
a 180 179 3
a 180 195 3
a 195 180 3
a 181 196 9
a 196 181 9
a 183 184 7
a 184 183 7
a 184 199 10
a 199 184 10
a 184 185 7
a 185 184 7
a 185 200 2
a 200 185 2
a 185 186 4
a 186 185 4
a 186 201 9
a 201 186 9
a 186 187 9
a 187 186 9
a 187 202 1
a 202 187 1
a 187 188 1
a 188 187 1
a 188 203 2
a 203 188 2
a 188 189 3
a 189 188 3
a 189 204 9
a 204 189 9
a 189 190 3
a 190 189 3
a 190 205 10
a 205 190 10
a 190 191 5
a 191 190 5
a 191 206 9
a 206 191 9
a 191 192 1
a 192 191 1
a 192 207 4
a 207 192 4
a 192 193 8
a 193 192 8
a 193 194 2
a 194 193 2
a 194 209 6
a 209 194 6
a 194 195 4
a 195 194 4
a 195 210 6
a 210 195 6
a 196 211 4
a 211 196 4
a 196 197 9
a 197 196 9
a 197 212 9
a 212 197 9
a 199 214 9
a 214 199 9
a 199 200 3
a 200 199 3
a 200 215 10
a 215 200 10
a 200 201 9
a 201 200 9
a 201 216 10
a 216 201 10
a 201 202 6
a 202 201 6
a 202 217 10
a 217 202 10
a 202 203 6
a 203 202 6
a 203 218 1
a 218 203 1
a 203 204 4
a 204 203 4
a 204 219 8
a 219 204 8
a 204 205 8
a 205 204 8
a 205 220 8
a 220 205 8
a 205 206 4
a 206 205 4
a 206 207 8
a 207 206 8
a 207 222 9
a 222 207 9
a 209 224 3
a 224 209 3
a 209 210 10
a 210 209 10
a 210 225 6
a 225 210 6
a 211 212 3
a 212 211 3
a 212 213 5
a 213 212 5
a 213 214 5
a 214 213 5
a 214 215 9
a 215 214 9
a 215 216 10
a 216 215 10
a 216 217 1
a 217 216 1
a 217 218 8
a 218 217 8
a 218 219 8
a 219 218 8
a 219 220 6
a 220 219 6
a 224 225 10
a 225 224 10
